data/solutions/planning/wellformed/moderate/weighting/wellformed_moderate_instance44_cplex.sol
Elapsed time: 0.1
Nodes explored: 799
Nodes left: 0
Relative gap: 0.0
Upper bound: 17340.0
Lower bound: 17340
C[0]=1156.0
C[1]=1156.0
C[2]=1156.0
C[3]=1156.0
y[0]=3
y[1]=2
y[2]=1
y[3]=2
y[4]=0
y[5]=3
y[6]=1
y[7]=1
y[8]=1
y[9]=1
y[10]=0
y[11]=0
y[12]=2
y[13]=1
y[14]=2
y[15]=2
y[16]=0
y[17]=3
y[18]=0
y[19]=0
y[20]=3
y[21]=1
y[22]=1
y[23]=2
y[24]=0
y[25]=3
y[26]=2
y[27]=3
y[28]=3
y[29]=2
y[30]=3
y[31]=3
y[32]=3
y[33]=1
y[34]=1
y[35]=3
y[36]=1
y[37]=1
y[38]=2
y[39]=2
y[40]=2
y[41]=0
y[42]=3
y[43]=0
y[44]=2
y[45]=0
y[46]=1
y[47]=0
y[48]=0
y[49]=3
